p edge 250 3039
e 1 15
e 1 46
e 1 52
e 1 53
e 1 56
e 1 57
e 1 60
e 1 62
e 1 63
e 1 66
e 1 75
e 1 80
e 1 96
e 1 97
e 1 116
e 1 139
e 1 145
e 1 183
e 1 194
e 1 200
e 1 202
e 1 212
e 1 214
e 2 22
e 2 26
e 2 28
e 2 34
e 2 45
e 2 46
e 2 52
e 2 58
e 2 62
e 2 72
e 2 95
e 2 112
e 2 113
e 2 115
e 2 116
e 2 127
e 2 138
e 2 153
e 2 158
e 2 162
e 2 166
e 2 171
e 2 175
e 2 219
e 2 229
e 2 235
e 3 8
e 3 19
e 3 24
e 3 29
e 3 38
e 3 52
e 3 54
e 3 65
e 3 79
e 3 82
e 3 89
e 3 96
e 3 112
e 3 113
e 3 129
e 3 130
e 3 137
e 3 142
e 3 201
e 3 202
e 3 214
e 3 237
e 3 248
e 3 250
e 4 5
e 4 10
e 4 12
e 4 18
e 4 19
e 4 30
e 4 42
e 4 45
e 4 60
e 4 69
e 4 70
e 4 85
e 4 92
e 4 94
e 4 96
e 4 140
e 4 155
e 4 156
e 4 161
e 4 179
e 4 191
e 4 209
e 4 239
e 4 250
e 5 8
e 5 18
e 5 21
e 5 22
e 5 35
e 5 39
e 5 45
e 5 52
e 5 56
e 5 60
e 5 63
e 5 64
e 5 74
e 5 78
e 5 79
e 5 96
e 5 121
e 5 128
e 5 136
e 5 137
e 5 152
e 5 169
e 5 173
e 5 185
e 5 192
e 5 201
e 5 205
e 5 208
e 5 210
e 5 245
e 5 247
e 5 248
e 6 17
e 6 41
e 6 42
e 6 50
e 6 60
e 6 61
e 6 68
e 6 73
e 6 74
e 6 79
e 6 100
e 6 103
e 6 108
e 6 119
e 6 120
e 6 121
e 6 148
e 6 150
e 6 152
e 6 153
e 6 154
e 6 158
e 6 175
e 6 178
e 6 193
e 6 195
e 6 205
e 6 207
e 6 208
e 6 225
e 6 235
e 6 243
e 7 8
e 7 17
e 7 22
e 7 24
e 7 31
e 7 38
e 7 58
e 7 84
e 7 90
e 7 111
e 7 113
e 7 145
e 7 148
e 7 169
e 7 170
e 7 172
e 7 173
e 7 175
e 7 176
e 7 213
e 7 225
e 7 227
e 7 234
e 7 240
e 8 16
e 8 40
e 8 47
e 8 61
e 8 66
e 8 70
e 8 73
e 8 81
e 8 88
e 8 91
e 8 94
e 8 111
e 8 114
e 8 117
e 8 121
e 8 122
e 8 127
e 8 156
e 8 166
e 8 180
e 8 191
e 8 192
e 8 201
e 8 212
e 8 237
e 8 242
e 8 250
e 9 14
e 9 22
e 9 34
e 9 36
e 9 67
e 9 84
e 9 87
e 9 106
e 9 107
e 9 119
e 9 172
e 9 187
e 9 205
e 9 211
e 9 216
e 9 227
e 9 237
e 10 17
e 10 31
e 10 35
e 10 37
e 10 39
e 10 44
e 10 49
e 10 68
e 10 89
e 10 101
e 10 104
e 10 114
e 10 126
e 10 131
e 10 137
e 10 145
e 10 148
e 10 184
e 10 189
e 10 198
e 10 203
e 10 206
e 10 218
e 10 226
e 10 229
e 10 240
e 11 14
e 11 21
e 11 22
e 11 35
e 11 40
e 11 45
e 11 64
e 11 68
e 11 71
e 11 94
e 11 121
e 11 129
e 11 136
e 11 141
e 11 159
e 11 169
e 11 182
e 11 183
e 11 200
e 11 213
e 11 219
e 12 13
e 12 16
e 12 19
e 12 27
e 12 33
e 12 56
e 12 64
e 12 65
e 12 66
e 12 79
e 12 86
e 12 104
e 12 106
e 12 127
e 12 135
e 12 137
e 12 146
e 12 152
e 12 166
e 12 192
e 12 194
e 12 203
e 12 204
e 12 222
e 12 224
e 12 228
e 12 242
e 13 17
e 13 27
e 13 37
e 13 52
e 13 88
e 13 95
e 13 103
e 13 137
e 13 163
e 13 164
e 13 176
e 13 187
e 13 224
e 13 232
e 13 233
e 13 244
e 13 248
e 14 17
e 14 19
e 14 22
e 14 37
e 14 39
e 14 52
e 14 55
e 14 63
e 14 78
e 14 85
e 14 92
e 14 95
e 14 96
e 14 101
e 14 106
e 14 124
e 14 146
e 14 149
e 14 154
e 14 166
e 14 169
e 14 171
e 14 179
e 14 183
e 14 187
e 14 190
e 14 201
e 14 223
e 14 228
e 15 26
e 15 38
e 15 45
e 15 57
e 15 58
e 15 61
e 15 67
e 15 69
e 15 73
e 15 74
e 15 78
e 15 116
e 15 130
e 15 139
e 15 146
e 15 148
e 15 153
e 15 184
e 15 200
e 15 206
e 15 210
e 15 214
e 15 235
e 15 241
e 16 22
e 16 24
e 16 25
e 16 45
e 16 48
e 16 63
e 16 85
e 16 88
e 16 96
e 16 99
e 16 103
e 16 104
e 16 125
e 16 130
e 16 131
e 16 133
e 16 148
e 16 149
e 16 157
e 16 179
e 16 199
e 16 209
e 16 223
e 16 230
e 16 236
e 16 241
e 16 242
e 16 247
e 17 24
e 17 62
e 17 87
e 17 95
e 17 97
e 17 99
e 17 150
e 17 179
e 17 182
e 17 187
e 17 194
e 17 200
e 17 204
e 17 209
e 17 221
e 17 224
e 17 237
e 17 247
e 18 20
e 18 25
e 18 31
e 18 56
e 18 59
e 18 61
e 18 65
e 18 72
e 18 89
e 18 93
e 18 95
e 18 99
e 18 102
e 18 131
e 18 144
e 18 153
e 18 157
e 18 167
e 18 200
e 18 210
e 18 213
e 18 216
e 18 229
e 18 240
e 19 26
e 19 28
e 19 34
e 19 40
e 19 42
e 19 50
e 19 68
e 19 70
e 19 88
e 19 90
e 19 101
e 19 105
e 19 119
e 19 154
e 19 160
e 19 174
e 19 197
e 19 213
e 19 218
e 19 225
e 19 231
e 19 239
e 19 242
e 20 29
e 20 40
e 20 52
e 20 56
e 20 59
e 20 77
e 20 87
e 20 115
e 20 118
e 20 124
e 20 125
e 20 131
e 20 163
e 20 167
e 20 169
e 20 173
e 20 185
e 20 190
e 20 193
e 20 203
e 20 217
e 20 219
e 20 220
e 20 222
e 20 233
e 20 240
e 21 22
e 21 27
e 21 28
e 21 50
e 21 54
e 21 70
e 21 81
e 21 82
e 21 87
e 21 90
e 21 92
e 21 96
e 21 104
e 21 106
e 21 108
e 21 113
e 21 124
e 21 139
e 21 153
e 21 158
e 21 168
e 21 180
e 21 189
e 21 209
e 21 229
e 21 235
e 21 236
e 21 241
e 21 243
e 22 34
e 22 43
e 22 54
e 22 57
e 22 77
e 22 78
e 22 95
e 22 111
e 22 121
e 22 125
e 22 133
e 22 153
e 22 157
e 22 170
e 22 189
e 22 203
e 22 204
e 22 208
e 22 216
e 22 239
e 23 38
e 23 46
e 23 65
e 23 89
e 23 95
e 23 97
e 23 117
e 23 119
e 23 122
e 23 126
e 23 135
e 23 136
e 23 148
e 23 157
e 23 163
e 23 178
e 23 204
e 23 207
e 23 223
e 23 224
e 23 232
e 23 235
e 23 238
e 23 243
e 23 244
e 24 34
e 24 40
e 24 49
e 24 52
e 24 66
e 24 81
e 24 85
e 24 87
e 24 89
e 24 95
e 24 101
e 24 104
e 24 106
e 24 107
e 24 112
e 24 126
e 24 136
e 24 151
e 24 165
e 24 176
e 24 183
e 24 205
e 24 206
e 24 213
e 24 215
e 24 232
e 24 246
e 25 31
e 25 47
e 25 66
e 25 71
e 25 74
e 25 76
e 25 78
e 25 83
e 25 131
e 25 134
e 25 135
e 25 162
e 25 169
e 25 172
e 25 180
e 25 191
e 25 200
e 25 202
e 25 217
e 25 223
e 25 224
e 25 226
e 25 242
e 26 36
e 26 48
e 26 57
e 26 63
e 26 73
e 26 77
e 26 93
e 26 97
e 26 112
e 26 113
e 26 115
e 26 126
e 26 142
e 26 172
e 26 173
e 26 174
e 26 187
e 26 195
e 26 216
e 26 218
e 26 247
e 27 30
e 27 37
e 27 43
e 27 47
e 27 65
e 27 73
e 27 82
e 27 86
e 27 92
e 27 102
e 27 116
e 27 134
e 27 169
e 27 170
e 27 181
e 27 191
e 27 192
e 27 221
e 27 236
e 27 249
e 28 57
e 28 58
e 28 70
e 28 86
e 28 92
e 28 94
e 28 95
e 28 100
e 28 114
e 28 118
e 28 121
e 28 194
e 28 219
e 28 224
e 28 228
e 28 240
e 28 243
e 28 250
e 29 40
e 29 53
e 29 57
e 29 72
e 29 80
e 29 84
e 29 88
e 29 91
e 29 105
e 29 120
e 29 150
e 29 158
e 29 167
e 29 182
e 29 186
e 29 196
e 29 200
e 29 202
e 29 214
e 29 220
e 29 221
e 30 44
e 30 58
e 30 59
e 30 122
e 30 126
e 30 128
e 30 132
e 30 134
e 30 145
e 30 156
e 30 161
e 30 163
e 30 173
e 30 184
e 30 185
e 30 199
e 30 213
e 30 222
e 30 233
e 30 245
e 31 37
e 31 49
e 31 54
e 31 62
e 31 78
e 31 82
e 31 90
e 31 97
e 31 99
e 31 115
e 31 122
e 31 143
e 31 149
e 31 160
e 31 181
e 31 188
e 31 222
e 31 225
e 31 249
e 32 44
e 32 47
e 32 56
e 32 78
e 32 112
e 32 121
e 32 127
e 32 130
e 32 163
e 32 175
e 32 184
e 32 185
e 32 193
e 32 228
e 32 235
e 33 43
e 33 56
e 33 59
e 33 60
e 33 87
e 33 89
e 33 91
e 33 116
e 33 118
e 33 119
e 33 142
e 33 188
e 33 195
e 33 201
e 33 209
e 33 219
e 33 229
e 33 234
e 33 244
e 33 248
e 34 37
e 34 52
e 34 84
e 34 98
e 34 101
e 34 104
e 34 130
e 34 140
e 34 145
e 34 169
e 34 210
e 34 222
e 34 228
e 34 231
e 34 233
e 34 250
e 35 42
e 35 51
e 35 60
e 35 68
e 35 76
e 35 81
e 35 83
e 35 94
e 35 104
e 35 106
e 35 127
e 35 157
e 35 164
e 35 174
e 35 180
e 35 184
e 35 193
e 35 201
e 35 214
e 35 220
e 35 227
e 35 230
e 35 239
e 35 241
e 35 249
e 36 37
e 36 46
e 36 56
e 36 59
e 36 61
e 36 63
e 36 79
e 36 83
e 36 94
e 36 107
e 36 112
e 36 133
e 36 135
e 36 186
e 36 190
e 36 194
e 36 205
e 36 213
e 36 226
e 36 229
e 36 241
e 36 248
e 37 42
e 37 44
e 37 45
e 37 48
e 37 49
e 37 55
e 37 70
e 37 115
e 37 116
e 37 125
e 37 133
e 37 142
e 37 143
e 37 144
e 37 170
e 37 182
e 37 185
e 37 191
e 37 211
e 37 213
e 37 223
e 37 225
e 37 238
e 37 244
e 37 245
e 38 40
e 38 63
e 38 64
e 38 65
e 38 66
e 38 74
e 38 77
e 38 101
e 38 141
e 38 148
e 38 151
e 38 180
e 38 185
e 38 186
e 38 192
e 38 208
e 38 217
e 38 218
e 38 224
e 38 230
e 38 234
e 38 243
e 38 246
e 39 52
e 39 53
e 39 54
e 39 58
e 39 75
e 39 76
e 39 83
e 39 87
e 39 124
e 39 126
e 39 133
e 39 135
e 39 136
e 39 140
e 39 148
e 39 178
e 39 189
e 39 191
e 39 201
e 39 202
e 39 216
e 39 228
e 39 243
e 39 248
e 40 52
e 40 60
e 40 76
e 40 77
e 40 91
e 40 95
e 40 106
e 40 109
e 40 111
e 40 117
e 40 124
e 40 127
e 40 128
e 40 136
e 40 161
e 40 181
e 40 186
e 40 193
e 40 201
e 40 203
e 40 204
e 40 230
e 40 239
e 40 250
e 41 51
e 41 56
e 41 58
e 41 62
e 41 73
e 41 112
e 41 124
e 41 153
e 41 167
e 41 172
e 41 179
e 41 180
e 41 182
e 41 186
e 41 202
e 41 207
e 41 219
e 41 235
e 41 242
e 41 247
e 42 47
e 42 84
e 42 94
e 42 122
e 42 123
e 42 124
e 42 126
e 42 130
e 42 134
e 42 150
e 42 202
e 42 217
e 42 219
e 42 232
e 42 233
e 42 237
e 42 246
e 43 67
e 43 69
e 43 80
e 43 147
e 43 151
e 43 163
e 43 174
e 43 197
e 43 204
e 43 216
e 43 218
e 43 220
e 43 233
e 43 236
e 43 244
e 44 76
e 44 77
e 44 82
e 44 86
e 44 92
e 44 116
e 44 117
e 44 123
e 44 132
e 44 133
e 44 140
e 44 208
e 44 210
e 44 212
e 44 223
e 44 229
e 45 46
e 45 47
e 45 50
e 45 66
e 45 81
e 45 101
e 45 125
e 45 126
e 45 152
e 45 158
e 45 167
e 45 171
e 45 187
e 45 192
e 45 200
e 45 214
e 46 49
e 46 56
e 46 63
e 46 66
e 46 84
e 46 128
e 46 137
e 46 146
e 46 156
e 46 160
e 46 166
e 46 169
e 46 175
e 46 176
e 46 213
e 46 226
e 46 236
e 47 51
e 47 63
e 47 76
e 47 100
e 47 105
e 47 126
e 47 132
e 47 138
e 47 139
e 47 140
e 47 145
e 47 148
e 47 156
e 47 158
e 47 166
e 47 169
e 47 176
e 47 180
e 47 182
e 47 192
e 47 200
e 47 211
e 47 216
e 47 219
e 47 230
e 47 236
e 48 53
e 48 64
e 48 68
e 48 74
e 48 78
e 48 101
e 48 110
e 48 114
e 48 129
e 48 137
e 48 151
e 48 166
e 48 171
e 48 173
e 48 177
e 48 178
e 48 200
e 48 201
e 48 228
e 48 247
e 48 249
e 49 61
e 49 83
e 49 94
e 49 98
e 49 104
e 49 108
e 49 131
e 49 137
e 49 146
e 49 149
e 49 151
e 49 161
e 49 180
e 49 183
e 49 185
e 49 189
e 49 190
e 49 193
e 49 220
e 49 227
e 49 231
e 49 245
e 50 53
e 50 62
e 50 65
e 50 82
e 50 86
e 50 99
e 50 114
e 50 122
e 50 124
e 50 131
e 50 141
e 50 160
e 50 170
e 50 185
e 50 201
e 50 203
e 50 228
e 50 238
e 50 246
e 51 55
e 51 56
e 51 62
e 51 63
e 51 68
e 51 126
e 51 132
e 51 133
e 51 137
e 51 173
e 51 185
e 51 204
e 51 213
e 52 59
e 52 62
e 52 63
e 52 76
e 52 88
e 52 89
e 52 90
e 52 95
e 52 140
e 52 158
e 52 188
e 52 191
e 52 192
e 52 193
e 52 199
e 52 203
e 52 212
e 52 222
e 52 243
e 53 69
e 53 75
e 53 94
e 53 110
e 53 118
e 53 119
e 53 154
e 53 163
e 53 176
e 53 185
e 53 197
e 53 211
e 53 217
e 53 226
e 53 236
e 53 247
e 53 249
e 54 55
e 54 62
e 54 63
e 54 65
e 54 79
e 54 80
e 54 93
e 54 120
e 54 131
e 54 146
e 54 150
e 54 165
e 54 171
e 54 180
e 54 187
e 54 190
e 54 194
e 54 198
e 54 202
e 54 212
e 54 220
e 54 221
e 54 230
e 54 241
e 55 59
e 55 73
e 55 83
e 55 93
e 55 106
e 55 121
e 55 126
e 55 140
e 55 151
e 55 152
e 55 165
e 55 166
e 55 168
e 55 171
e 55 172
e 55 176
e 55 187
e 55 191
e 55 198
e 55 209
e 55 222
e 55 231
e 55 233
e 56 68
e 56 71
e 56 87
e 56 95
e 56 97
e 56 98
e 56 124
e 56 131
e 56 136
e 56 149
e 56 159
e 56 161
e 56 177
e 56 179
e 56 219
e 56 222
e 56 239
e 56 241
e 56 247
e 57 58
e 57 69
e 57 74
e 57 117
e 57 122
e 57 127
e 57 134
e 57 142
e 57 155
e 57 168
e 57 196
e 57 212
e 57 215
e 57 224
e 58 95
e 58 101
e 58 102
e 58 104
e 58 108
e 58 118
e 58 119
e 58 123
e 58 125
e 58 129
e 58 144
e 58 155
e 58 157
e 58 158
e 58 163
e 58 165
e 58 178
e 58 185
e 58 221
e 58 230
e 59 73
e 59 76
e 59 78
e 59 93
e 59 101
e 59 119
e 59 132
e 59 152
e 59 158
e 59 166
e 59 172
e 59 181
e 59 182
e 59 187
e 59 233
e 60 63
e 60 72
e 60 77
e 60 78
e 60 110
e 60 113
e 60 122
e 60 133
e 60 145
e 60 173
e 60 183
e 60 194
e 60 195
e 60 210
e 60 221
e 60 238
e 60 242
e 60 247
e 60 248
e 61 66
e 61 110
e 61 114
e 61 116
e 61 131
e 61 137
e 61 150
e 61 151
e 61 157
e 61 160
e 61 183
e 61 193
e 61 196
e 61 197
e 61 216
e 61 223
e 61 233
e 61 244
e 61 248
e 61 249
e 62 74
e 62 105
e 62 107
e 62 112
e 62 115
e 62 122
e 62 148
e 62 152
e 62 183
e 62 189
e 62 199
e 62 200
e 62 205
e 62 223
e 62 226
e 62 228
e 63 65
e 63 78
e 63 80
e 63 96
e 63 98
e 63 125
e 63 149
e 63 205
e 63 206
e 63 212
e 63 228
e 63 230
e 63 240
e 63 244
e 64 84
e 64 85
e 64 93
e 64 95
e 64 113
e 64 136
e 64 149
e 64 153
e 64 157
e 64 169
e 64 176
e 64 177
e 64 186
e 64 237
e 64 246
e 65 68
e 65 75
e 65 79
e 65 91
e 65 108
e 65 110
e 65 120
e 65 121
e 65 137
e 65 158
e 65 170
e 65 175
e 65 189
e 65 196
e 65 197
e 65 205
e 65 222
e 65 223
e 65 225
e 65 240
e 65 243
e 66 73
e 66 83
e 66 88
e 66 101
e 66 103
e 66 119
e 66 127
e 66 135
e 66 155
e 66 157
e 66 163
e 66 165
e 66 177
e 66 178
e 66 211
e 66 222
e 66 223
e 66 224
e 66 227
e 66 228
e 66 230
e 67 69
e 67 81
e 67 93
e 67 100
e 67 105
e 67 107
e 67 132
e 67 156
e 67 163
e 67 164
e 67 170
e 67 185
e 67 204
e 67 212
e 67 231
e 68 80
e 68 91
e 68 117
e 68 160
e 68 185
e 68 186
e 68 207
e 68 233
e 68 247
e 68 248
e 69 83
e 69 92
e 69 101
e 69 104
e 69 126
e 69 144
e 69 190
e 69 204
e 69 223
e 69 227
e 69 229
e 69 236
e 69 248
e 70 74
e 70 82
e 70 83
e 70 89
e 70 102
e 70 105
e 70 109
e 70 144
e 70 146
e 70 147
e 70 151
e 70 156
e 70 158
e 70 171
e 70 172
e 70 173
e 70 178
e 70 184
e 70 199
e 70 202
e 70 203
e 70 222
e 70 228
e 70 236
e 70 245
e 70 249
e 71 73
e 71 74
e 71 77
e 71 78
e 71 79
e 71 84
e 71 95
e 71 123
e 71 127
e 71 133
e 71 138
e 71 143
e 71 144
e 71 157
e 71 162
e 71 172
e 71 180
e 71 181
e 71 186
e 71 202
e 71 213
e 71 215
e 71 223
e 71 234
e 71 235
e 71 244
e 72 84
e 72 85
e 72 93
e 72 100
e 72 110
e 72 132
e 72 136
e 72 148
e 72 157
e 72 162
e 72 164
e 72 177
e 72 188
e 72 231
e 72 239
e 72 245
e 73 94
e 73 99
e 73 108
e 73 111
e 73 114
e 73 140
e 73 161
e 73 166
e 73 194
e 73 197
e 73 202
e 73 214
e 73 220
e 73 229
e 73 250
e 74 83
e 74 86
e 74 109
e 74 123
e 74 154
e 74 159
e 74 194
e 74 206
e 74 226
e 74 227
e 74 245
e 75 84
e 75 89
e 75 101
e 75 159
e 75 165
e 75 166
e 75 190
e 75 191
e 75 194
e 75 207
e 75 223
e 75 228
e 75 238
e 75 239
e 76 79
e 76 91
e 76 103
e 76 137
e 76 154
e 76 165
e 76 168
e 76 169
e 76 176
e 76 196
e 76 216
e 76 218
e 76 221
e 76 228
e 76 231
e 76 232
e 76 239
e 76 243
e 77 86
e 77 89
e 77 111
e 77 122
e 77 130
e 77 135
e 77 136
e 77 141
e 77 143
e 77 170
e 77 180
e 77 222
e 78 84
e 78 98
e 78 103
e 78 112
e 78 126
e 78 135
e 78 138
e 78 143
e 78 146
e 78 152
e 78 209
e 78 210
e 78 237
e 79 96
e 79 97
e 79 100
e 79 106
e 79 113
e 79 133
e 79 142
e 79 173
e 79 174
e 79 184
e 79 192
e 79 197
e 79 211
e 79 214
e 79 222
e 79 225
e 79 229
e 79 233
e 80 122
e 80 123
e 80 133
e 80 135
e 80 149
e 80 157
e 80 161
e 80 163
e 80 176
e 80 183
e 80 195
e 80 201
e 80 240
e 80 241
e 80 245
e 81 83
e 81 88
e 81 98
e 81 114
e 81 155
e 81 157
e 81 174
e 81 184
e 81 187
e 81 201
e 81 214
e 81 215
e 81 232
e 81 242
e 81 245
e 81 248
e 82 102
e 82 109
e 82 110
e 82 117
e 82 121
e 82 131
e 82 136
e 82 140
e 82 145
e 82 148
e 82 153
e 82 155
e 82 168
e 82 170
e 82 180
e 82 184
e 82 193
e 82 216
e 82 234
e 82 243
e 82 245
e 83 100
e 83 120
e 83 132
e 83 133
e 83 138
e 83 152
e 83 154
e 83 157
e 83 159
e 83 168
e 83 175
e 83 213
e 83 214
e 83 215
e 83 219
e 83 221
e 83 227
e 83 229
e 83 233
e 84 89
e 84 92
e 84 94
e 84 108
e 84 111
e 84 115
e 84 122
e 84 125
e 84 140
e 84 165
e 84 168
e 84 173
e 84 174
e 84 175
e 84 181
e 84 243
e 84 244
e 85 92
e 85 95
e 85 114
e 85 119
e 85 159
e 85 171
e 85 180
e 85 193
e 85 210
e 85 236
e 85 241
e 85 247
e 86 97
e 86 99
e 86 103
e 86 109
e 86 116
e 86 143
e 86 144
e 86 148
e 86 167
e 86 170
e 86 171
e 86 173
e 86 184
e 86 209
e 86 231
e 86 232
e 86 246
e 87 109
e 87 110
e 87 112
e 87 137
e 87 154
e 87 159
e 87 167
e 87 168
e 87 170
e 87 180
e 87 189
e 87 190
e 87 194
e 87 195
e 87 202
e 87 203
e 87 205
e 87 212
e 87 222
e 87 231
e 87 237
e 87 246
e 88 104
e 88 111
e 88 115
e 88 123
e 88 138
e 88 143
e 88 144
e 88 146
e 88 149
e 88 195
e 88 215
e 88 219
e 88 224
e 88 242
e 88 243
e 88 250
e 89 105
e 89 119
e 89 127
e 89 139
e 89 144
e 89 162
e 89 163
e 89 166
e 89 182
e 89 190
e 89 193
e 89 195
e 89 220
e 89 234
e 89 236
e 89 250
e 90 95
e 90 98
e 90 118
e 90 123
e 90 144
e 90 146
e 90 159
e 90 161
e 90 164
e 90 177
e 90 183
e 90 192
e 90 193
e 90 226
e 90 229
e 90 245
e 91 107
e 91 124
e 91 131
e 91 149
e 91 151
e 91 173
e 91 190
e 91 197
e 91 200
e 91 205
e 91 206
e 91 220
e 91 225
e 91 226
e 91 236
e 92 96
e 92 99
e 92 113
e 92 124
e 92 127
e 92 132
e 92 136
e 92 137
e 92 141
e 92 142
e 92 148
e 92 151
e 92 165
e 92 190
e 92 191
e 92 205
e 92 210
e 92 217
e 92 231
e 92 239
e 92 241
e 93 94
e 93 98
e 93 107
e 93 124
e 93 126
e 93 134
e 93 143
e 93 146
e 93 152
e 93 155
e 93 161
e 93 165
e 93 167
e 93 185
e 93 186
e 93 189
e 93 207
e 93 211
e 93 212
e 93 226
e 93 240
e 94 95
e 94 96
e 94 103
e 94 118
e 94 128
e 94 136
e 94 142
e 94 173
e 94 177
e 94 183
e 94 197
e 94 208
e 94 221
e 94 227
e 94 230
e 95 104
e 95 118
e 95 119
e 95 124
e 95 127
e 95 129
e 95 138
e 95 151
e 95 167
e 95 179
e 95 180
e 95 188
e 95 201
e 95 204
e 95 211
e 95 238
e 95 250
e 96 99
e 96 112
e 96 114
e 96 121
e 96 122
e 96 141
e 96 170
e 96 178
e 96 192
e 96 212
e 96 225
e 96 228
e 96 235
e 96 238
e 97 102
e 97 116
e 97 125
e 97 139
e 97 150
e 97 159
e 97 165
e 97 175
e 97 183
e 97 188
e 97 201
e 97 211
e 97 225
e 97 236
e 97 246
e 98 113
e 98 114
e 98 119
e 98 128
e 98 136
e 98 158
e 98 169
e 98 176
e 98 186
e 98 188
e 98 193
e 98 194
e 98 210
e 98 215
e 98 223
e 98 224
e 98 225
e 98 226
e 98 232
e 99 102
e 99 104
e 99 109
e 99 111
e 99 118
e 99 120
e 99 127
e 99 129
e 99 133
e 99 161
e 99 164
e 99 165
e 99 170
e 99 178
e 99 183
e 99 189
e 99 200
e 99 204
e 99 207
e 99 230
e 99 235
e 99 239
e 100 101
e 100 104
e 100 144
e 100 174
e 100 175
e 100 176
e 100 204
e 100 205
e 100 221
e 100 222
e 100 225
e 101 113
e 101 114
e 101 130
e 101 139
e 101 148
e 101 154
e 101 157
e 101 161
e 101 174
e 101 186
e 101 190
e 101 210
e 101 241
e 101 246
e 102 105
e 102 114
e 102 121
e 102 174
e 102 181
e 102 194
e 102 219
e 102 231
e 102 232
e 102 234
e 102 245
e 103 134
e 103 142
e 103 151
e 103 163
e 103 184
e 103 194
e 103 199
e 103 206
e 103 225
e 103 230
e 103 232
e 103 240
e 104 106
e 104 118
e 104 119
e 104 131
e 104 133
e 104 138
e 104 211
e 104 223
e 104 228
e 105 135
e 105 158
e 105 169
e 105 179
e 105 182
e 105 196
e 105 201
e 105 202
e 105 209
e 105 211
e 105 236
e 105 247
e 106 107
e 106 112
e 106 128
e 106 134
e 106 140
e 106 149
e 106 162
e 106 165
e 106 169
e 106 170
e 106 171
e 106 181
e 106 182
e 106 184
e 106 185
e 106 186
e 106 187
e 106 190
e 106 214
e 106 218
e 106 222
e 106 238
e 107 138
e 107 139
e 107 172
e 107 173
e 107 184
e 107 187
e 107 204
e 107 216
e 107 230
e 107 239
e 107 243
e 107 245
e 108 132
e 108 143
e 108 150
e 108 151
e 108 156
e 108 161
e 108 170
e 108 182
e 108 189
e 108 206
e 108 207
e 108 212
e 108 235
e 108 244
e 108 249
e 109 147
e 109 159
e 109 163
e 109 164
e 109 167
e 109 174
e 109 180
e 109 192
e 109 194
e 109 236
e 109 250
e 110 125
e 110 130
e 110 132
e 110 144
e 110 145
e 110 153
e 110 182
e 110 184
e 110 186
e 110 216
e 110 248
e 111 123
e 111 133
e 111 146
e 111 163
e 111 165
e 111 168
e 111 173
e 111 175
e 111 177
e 111 185
e 111 210
e 111 217
e 111 240
e 112 118
e 112 121
e 112 126
e 112 153
e 112 155
e 112 161
e 112 165
e 112 183
e 112 193
e 112 200
e 112 208
e 112 210
e 112 234
e 112 245
e 112 246
e 113 115
e 113 121
e 113 193
e 113 212
e 113 223
e 113 228
e 113 233
e 113 237
e 113 243
e 113 247
e 114 146
e 114 152
e 114 159
e 114 163
e 114 178
e 114 184
e 114 189
e 114 191
e 114 192
e 114 232
e 114 242
e 114 247
e 115 121
e 115 125
e 115 127
e 115 136
e 115 137
e 115 141
e 115 145
e 115 160
e 115 165
e 115 169
e 115 181
e 115 182
e 115 187
e 115 198
e 115 210
e 115 223
e 115 233
e 115 242
e 116 123
e 116 182
e 116 186
e 116 190
e 116 196
e 116 206
e 116 210
e 116 217
e 116 229
e 117 127
e 117 146
e 117 153
e 117 168
e 117 184
e 117 214
e 117 215
e 117 245
e 118 135
e 118 170
e 118 176
e 118 188
e 118 193
e 118 211
e 118 245
e 118 249
e 119 128
e 119 131
e 119 154
e 119 157
e 119 171
e 119 172
e 119 174
e 119 178
e 119 185
e 119 190
e 119 209
e 119 211
e 119 230
e 119 231
e 119 245
e 120 131
e 120 132
e 120 145
e 120 148
e 120 156
e 120 170
e 120 171
e 120 174
e 120 176
e 120 230
e 120 233
e 120 242
e 120 246
e 121 122
e 121 129
e 121 132
e 121 133
e 121 144
e 121 145
e 121 146
e 121 152
e 121 158
e 121 165
e 121 168
e 121 175
e 121 179
e 121 197
e 121 232
e 121 236
e 121 239
e 121 243
e 122 124
e 122 132
e 122 135
e 122 151
e 122 158
e 122 175
e 122 209
e 122 212
e 122 243
e 123 128
e 123 136
e 123 138
e 123 157
e 123 159
e 123 166
e 123 167
e 123 187
e 123 192
e 123 194
e 123 196
e 123 237
e 123 239
e 123 250
e 124 127
e 124 145
e 124 149
e 124 167
e 124 187
e 124 190
e 124 209
e 124 217
e 124 228
e 124 248
e 124 249
e 125 142
e 125 146
e 125 193
e 125 196
e 125 205
e 125 224
e 125 237
e 126 136
e 126 137
e 126 142
e 126 147
e 126 148
e 126 162
e 126 212
e 126 215
e 126 222
e 126 227
e 127 146
e 127 154
e 127 157
e 127 190
e 127 208
e 127 214
e 127 220
e 127 225
e 127 231
e 128 133
e 128 147
e 128 150
e 128 162
e 128 173
e 128 176
e 128 178
e 128 184
e 128 195
e 128 225
e 128 226
e 128 237
e 128 241
e 129 144
e 129 152
e 129 160
e 129 166
e 129 168
e 129 171
e 129 189
e 129 193
e 129 202
e 129 212
e 129 213
e 129 246
e 129 250
e 130 131
e 130 139
e 130 148
e 130 149
e 130 179
e 130 190
e 130 212
e 130 236
e 131 135
e 131 144
e 131 146
e 131 148
e 131 152
e 131 169
e 131 186
e 131 187
e 131 196
e 131 210
e 131 218
e 131 220
e 131 222
e 131 227
e 132 137
e 132 142
e 132 151
e 132 155
e 132 164
e 132 167
e 132 201
e 132 228
e 132 242
e 133 142
e 133 148
e 133 170
e 133 171
e 133 172
e 133 173
e 133 177
e 133 187
e 133 191
e 133 198
e 133 202
e 133 208
e 133 215
e 133 226
e 133 230
e 133 234
e 133 235
e 134 155
e 134 157
e 134 167
e 134 172
e 134 183
e 134 189
e 134 190
e 134 204
e 134 220
e 134 226
e 134 230
e 135 141
e 135 145
e 135 196
e 135 201
e 135 203
e 135 241
e 136 138
e 136 143
e 136 153
e 136 157
e 136 159
e 136 173
e 136 200
e 136 201
e 136 203
e 136 204
e 136 218
e 136 238
e 137 157
e 137 159
e 137 174
e 137 181
e 137 192
e 137 201
e 137 204
e 137 208
e 137 218
e 137 224
e 137 229
e 137 238
e 137 240
e 137 250
e 138 141
e 138 145
e 138 164
e 138 174
e 138 186
e 138 193
e 138 202
e 138 210
e 138 222
e 138 227
e 139 151
e 139 165
e 139 167
e 139 176
e 139 177
e 139 181
e 139 186
e 139 203
e 139 207
e 139 215
e 139 233
e 139 237
e 139 240
e 139 243
e 139 244
e 140 177
e 140 181
e 140 182
e 140 185
e 140 205
e 140 206
e 140 216
e 140 225
e 141 146
e 141 148
e 141 178
e 141 179
e 141 204
e 141 222
e 141 225
e 141 241
e 141 249
e 142 155
e 142 160
e 142 161
e 142 179
e 142 205
e 142 214
e 142 219
e 142 221
e 142 224
e 142 241
e 143 146
e 143 163
e 143 175
e 143 178
e 143 190
e 143 191
e 143 198
e 143 206
e 144 154
e 144 169
e 144 171
e 144 242
e 144 246
e 144 250
e 145 153
e 145 155
e 145 198
e 145 221
e 145 249
e 146 149
e 146 150
e 146 164
e 146 172
e 146 179
e 146 183
e 146 184
e 146 186
e 146 187
e 146 194
e 146 200
e 146 228
e 146 238
e 147 150
e 147 151
e 147 164
e 147 172
e 147 173
e 147 184
e 147 198
e 147 240
e 147 244
e 147 247
e 148 149
e 148 173
e 148 177
e 148 182
e 148 206
e 148 210
e 148 220
e 148 228
e 148 232
e 148 240
e 148 241
e 149 151
e 149 152
e 149 192
e 149 205
e 149 207
e 149 209
e 149 223
e 149 225
e 149 234
e 149 238
e 150 151
e 150 152
e 150 172
e 150 174
e 150 180
e 150 186
e 150 198
e 150 204
e 150 212
e 150 238
e 150 239
e 150 249
e 151 165
e 151 172
e 151 173
e 151 190
e 151 198
e 151 199
e 151 209
e 151 225
e 151 231
e 152 167
e 152 169
e 152 182
e 152 209
e 152 221
e 152 235
e 152 238
e 153 154
e 153 163
e 153 169
e 153 175
e 153 188
e 153 190
e 153 193
e 153 213
e 153 214
e 153 230
e 153 237
e 154 160
e 154 167
e 154 171
e 154 184
e 154 194
e 154 199
e 154 209
e 154 216
e 154 245
e 154 246
e 155 158
e 155 193
e 155 215
e 155 222
e 155 227
e 155 241
e 156 158
e 156 160
e 156 177
e 156 183
e 156 186
e 156 190
e 156 194
e 156 208
e 156 220
e 156 221
e 156 223
e 156 247
e 157 158
e 157 165
e 157 167
e 157 168
e 157 176
e 157 202
e 157 204
e 157 205
e 157 219
e 157 222
e 157 227
e 157 231
e 157 241
e 158 160
e 158 173
e 158 181
e 158 185
e 158 195
e 158 201
e 158 204
e 158 208
e 158 213
e 158 231
e 158 233
e 158 235
e 158 241
e 159 162
e 159 169
e 159 171
e 159 172
e 159 175
e 159 191
e 159 201
e 159 203
e 159 208
e 159 209
e 159 212
e 159 213
e 159 216
e 159 218
e 159 232
e 159 236
e 160 161
e 160 175
e 160 177
e 160 182
e 160 188
e 160 189
e 160 195
e 160 200
e 160 213
e 160 230
e 160 233
e 161 162
e 161 163
e 161 179
e 161 189
e 161 200
e 161 214
e 161 219
e 161 232
e 161 235
e 161 243
e 162 179
e 162 181
e 162 184
e 162 186
e 162 202
e 162 212
e 162 228
e 162 242
e 163 204
e 163 209
e 163 220
e 163 228
e 163 229
e 163 236
e 163 250
e 164 177
e 164 181
e 164 188
e 164 189
e 164 199
e 164 211
e 164 215
e 164 221
e 164 226
e 164 228
e 164 235
e 164 247
e 165 170
e 165 174
e 165 175
e 165 221
e 165 230
e 165 238
e 165 244
e 165 250
e 166 170
e 166 178
e 166 181
e 166 192
e 166 193
e 166 197
e 166 209
e 166 244
e 167 168
e 167 190
e 167 195
e 167 211
e 167 238
e 167 244
e 168 181
e 168 193
e 168 194
e 168 207
e 168 217
e 168 219
e 168 220
e 168 229
e 168 234
e 168 247
e 169 184
e 169 195
e 169 218
e 169 238
e 170 172
e 170 198
e 170 199
e 170 201
e 170 212
e 170 217
e 170 222
e 170 223
e 170 226
e 170 227
e 170 232
e 170 245
e 170 250
e 171 175
e 171 176
e 171 177
e 171 183
e 171 186
e 171 193
e 171 199
e 171 206
e 171 209
e 171 245
e 171 246
e 172 180
e 172 183
e 172 186
e 172 194
e 172 197
e 172 226
e 172 235
e 172 248
e 172 249
e 173 180
e 173 185
e 173 215
e 173 217
e 173 219
e 173 245
e 173 248
e 174 179
e 174 201
e 174 208
e 174 211
e 174 219
e 174 220
e 174 231
e 174 233
e 175 179
e 175 191
e 175 203
e 175 225
e 175 240
e 175 241
e 176 188
e 176 197
e 176 201
e 176 216
e 176 229
e 177 178
e 177 199
e 177 202
e 177 211
e 177 217
e 177 218
e 177 227
e 177 237
e 178 185
e 178 188
e 178 191
e 178 205
e 178 207
e 178 213
e 178 221
e 178 224
e 178 230
e 178 231
e 178 248
e 179 192
e 179 214
e 179 219
e 179 237
e 179 244
e 179 245
e 180 184
e 180 196
e 180 202
e 180 209
e 180 217
e 180 218
e 180 229
e 180 250
e 181 187
e 181 206
e 181 207
e 181 228
e 181 246
e 181 248
e 182 191
e 182 193
e 182 201
e 182 216
e 182 220
e 182 221
e 182 224
e 182 247
e 183 188
e 183 202
e 183 208
e 183 216
e 183 226
e 183 234
e 183 246
e 184 186
e 184 190
e 184 200
e 184 239
e 185 186
e 185 192
e 185 193
e 185 198
e 185 201
e 185 205
e 185 210
e 185 213
e 185 223
e 185 241
e 186 194
e 186 202
e 186 208
e 186 219
e 186 246
e 186 248
e 187 188
e 187 217
e 187 220
e 187 239
e 187 249
e 188 199
e 188 202
e 188 206
e 189 199
e 189 211
e 189 221
e 189 230
e 189 232
e 189 241
e 189 248
e 190 199
e 190 205
e 190 211
e 190 212
e 190 227
e 190 238
e 190 245
e 191 199
e 191 202
e 191 208
e 191 209
e 191 214
e 191 223
e 191 242
e 192 195
e 192 206
e 192 218
e 192 246
e 193 207
e 193 214
e 193 242
e 193 248
e 193 250
e 194 221
e 194 231
e 194 247
e 195 198
e 195 200
e 195 201
e 195 230
e 195 237
e 196 202
e 196 204
e 196 207
e 196 216
e 196 226
e 196 236
e 197 221
e 197 234
e 197 235
e 197 242
e 197 244
e 197 247
e 197 249
e 198 200
e 198 201
e 198 207
e 198 219
e 198 225
e 198 228
e 198 241
e 199 214
e 199 219
e 199 237
e 199 240
e 199 243
e 199 246
e 200 201
e 200 205
e 200 221
e 200 225
e 200 235
e 201 204
e 201 219
e 202 204
e 202 206
e 202 207
e 202 224
e 202 234
e 203 229
e 203 239
e 203 246
e 204 208
e 204 243
e 204 244
e 205 225
e 205 227
e 205 243
e 206 225
e 206 228
e 206 229
e 206 235
e 206 246
e 207 226
e 207 229
e 207 233
e 207 243
e 208 214
e 208 224
e 208 229
e 208 237
e 209 214
e 209 216
e 209 220
e 209 227
e 209 233
e 209 235
e 210 214
e 210 215
e 210 220
e 210 236
e 210 239
e 211 226
e 211 243
e 213 229
e 214 219
e 214 240
e 214 244
e 215 230
e 215 244
e 216 217
e 216 224
e 216 228
e 216 233
e 216 234
e 217 221
e 217 225
e 217 228
e 217 240
e 217 241
e 218 223
e 218 226
e 218 234
e 219 222
e 219 250
e 220 227
e 220 237
e 220 246
e 221 235
e 221 241
e 223 244
e 224 225
e 224 226
e 224 228
e 224 229
e 225 237
e 225 245
e 225 247
e 226 231
e 226 249
e 227 231
e 227 232
e 228 232
e 228 237
e 229 231
e 229 233
e 229 243
e 230 240
e 231 240
e 231 247
e 232 233
e 232 245
e 233 238
e 233 241
e 234 236
e 234 243
e 235 248
e 236 241
e 236 249
e 239 243
e 239 244
e 240 248
e 241 243
e 243 250
e 244 246
e 248 249
